(declare-fun a () Real)
(declare-fun b () Real)
(declare-fun c () Real)
(declare-fun d () Real)
(declare-fun jnehi () Real)
(declare-fun e () Real)
(declare-fun z () Real)
(declare-fun f () Real)
(declare-fun gPlfN () Real)
(declare-fun g () Real)
(declare-fun h () Real)
(declare-fun i () Real)
(declare-fun j () Real)
(declare-fun QHMkz () Real)
(declare-fun k () Real)
(declare-fun l () Real)
(declare-fun zdJPl () Real)
(declare-fun m () Real)
(declare-fun n () Real)
(declare-fun aa () Real)
(declare-fun o () Real)
(declare-fun p () Real)
(declare-fun q () Real)
(declare-fun r () Real)
(declare-fun s () Real)
(declare-fun I2 () Real)
(declare-fun t () Real)
(declare-fun u () Real)
(declare-fun v () Real)
(declare-fun w () Real)
(declare-fun x () Real)
(declare-fun ab () Real)
(declare-fun ac () Real)
(declare-fun ad () Real)
(declare-fun ep () Real)
(declare-fun ae () Real)
(declare-fun af () Real)
(declare-fun ag () Real)
(declare-fun ah () Real)
(declare-fun ai () Real)
(declare-fun aj () Real)
(declare-fun ak () Real)
(declare-fun al () Real)
(declare-fun am () Real)
(declare-fun an () Real)
(declare-fun bb () Real)
(declare-fun ao () Real)
(declare-fun ap () Real)
(declare-fun aq () Real)
(declare-fun ar () Real)
(declare-fun au () Real)
(assert (not (exists ((af Real)) (=> (and (and (and (and (and (and (and (and (and (and (and (and (and (and (and (= (- j) 0.0 (- n am))) (= aa 0.0)) (= aa 2.0)) (= (- e (- f t)) 2.0)) (< (+ (- gPlfN an) (/ (* (- b (- g v)) (- b (- g v))) (* 2.0 q))) v)) (= I2 2.0)) (< (- h au) t)) (< 0.0 q)) (<= 0.0 (- b (- g v)))) (<= (- b (- g v)) x)) (<= 0.0 (- jnehi ai))) (<= (- jnehi ai) x)) (<= 0.0 (- c au))) (< 0.0 x)) (< 0.0 ep)) (or (= v (- zdJPl aj)) (=> (<= 0.0 (- k ap)) (=> (=> (and (<= af (- k ap))) (and (and (and (and (<= 0.0 (- n am) x)) (<= 0.0 (+ 0 ac))) (<= (+ (* (- c a) af) ac) x)) (<= 0 ep))) (or (= (- j am) 2.0)))))))))
(assert (not (exists ((y Real)) (=> (and (and (and (and (and (and (and (and (and (and (and (and (and (and (=> (and (<= 0.0 (- QHMkz ac) ai)) (and (and (<= 0 (+ (* (* (- 1.0) (- f t)) (- QHMkz ac)) ap) bb)) (<= (- QHMkz ac) aq))) (<= 0.0 ai)) (= ar 1.0)) (< (/ (+ (- g v) (/ (* ap ap) (* 2.0 (- f t)))) (* (+ (/ aj (- f t)) 1.0) (+ (* (* aj (/ 1 2)) (* aq aq)) (* aq ap)))) ah)) (<= 0.0 ap)) (<= ap bb)) (< (+ (- g v) (/ (* ap ap) (* 2.0 (- f t)))) ah)) (= (- n ag) 2.0)) (< ah au)) (< 0.0 (- f t))) (<= 0.0 (- gPlfN u))) (<= (- gPlfN u) bb)) (<= 0.0 aj)) (< 0.0 bb)) (< 0.0 aq)) (or (< ah (* (/ 1 2) (+ (+ (* (* 1.0 (- f t)) (* ai ai)) (* (* 2.0 ai) ap)) (* 2.0 (- g v))))) (< (+ (* (/ 1 2) (+ (+ (/ (* 1.0 (- f t)) (* ai ai)) (* (* 2.0 ai) ap)) (* 2.0 (- g v)))) (/ (* (+ (* (* (- 1.0) (- f t)) ai) ap) (+ (* (* (- 1.0) (- f t)) ai) ap)) (* 2.0 (- f t)))) ah))))))
(assert (= a (+ aa am)))
(assert (= b (+ o ao)))
(assert (= c (+ p au)))
(assert (= d (+ q ai)))
(assert (= jnehi (+ r ai)))
(assert (= e (+ s ak)))
(assert (= z (+ I2 al)))
(assert (= f (+ t ak)))
(assert (= gPlfN (+ u an)))
(assert (= g (+ w au)))
(assert (= i (+ x am)))
(assert (= j (+ ab am)))
(assert (= QHMkz (+ ac al)))
(assert (= k (+ ad ap)))
(assert (= l 0))
(assert (= zdJPl (+ ae aj)))
(assert (= m (+ af bb)))
(assert (= n (+ ag am)))
(check-sat)
